
































































































13 67 29 55 
41 2 51 58 
53 44 37 23 39 
10 25 76 52 
48 47 27 60 
26 62 9 3 63 
7 75 5 43 0 
31 15 16 54 6 
71 19 30 61 
28 40 34 42 65 
72 18 1 38 14 
21 20 69 50 
59 12 73 56 
68 64 57 49 
4 22 33 35 
8 11 24 66 
17 70 36 
46 32 45 74 
